
Gurobi 6.0.4 (win64) logging started 06/20/15 12:06:35

Read LP format model from file C:\MT\repository\VRPTWMS\instances\mip\fuel\N8-C_DV100-C_SV30_F6_8_No_1.lp
Reading time = 0.01 seconds
(null): 417 rows, 208 columns, 1715 nonzeros
Optimize a model with 417 rows, 208 columns and 1715 nonzeros
Model has 576 quadratic constraints
Coefficient statistics:
  Matrix range    [1e+00, 1e+06]
  Objective range [1e+04, 1e+07]
  Bounds range    [1e+00, 1e+06]
  RHS range       [1e+00, 1e+06]
Presolve removed 39 rows and 25 columns
Presolve time: 0.08s
Presolved: 1393 rows, 712 columns, 6703 nonzeros
Variable types: 484 continuous, 228 integer (185 binary)
Found heuristic solution: objective 8.389860e+07

Root relaxation: objective 1.150719e+07, 97 iterations, 0.00 seconds

    Nodes    |    Current Node    |     Objective Bounds      |     Work
 Expl Unexpl |  Obj  Depth IntInf | Incumbent    BestBd   Gap | It/Node Time

     0     0 1.1507e+07    0   31 8.3899e+07 1.1507e+07  86.3%     -    0s
H    0     0                    4.242720e+07 1.1507e+07  72.9%     -    0s
     0     0 1.6710e+07    0   32 4.2427e+07 1.6710e+07  60.6%     -    0s
H    0     0                    3.188870e+07 1.6710e+07  47.6%     -    0s
     0     0 2.1417e+07    0   28 3.1889e+07 2.1417e+07  32.8%     -    0s
H    0     0                    3.177580e+07 2.1417e+07  32.6%     -    0s
     0     0 2.1489e+07    0   20 3.1776e+07 2.1489e+07  32.4%     -    0s
     0     0 2.1489e+07    0   15 3.1776e+07 2.1489e+07  32.4%     -    0s
     0     2 2.1489e+07    0   15 3.1776e+07 2.1489e+07  32.4%     -    0s
H  119    49                    3.176360e+07 2.1622e+07  31.9%  15.7    0s
  4118   261 infeasible   28      3.1764e+07 2.2240e+07  30.0%  27.1    5s

Cutting planes:
  Gomory: 4
  Cover: 3
  Implied bound: 2
  Clique: 5
  MIR: 3
  Flow cover: 4
  Zero half: 11

Explored 5153 nodes (186467 simplex iterations) in 6.35 seconds
Thread count was 2 (of 4 available processors)

Optimal solution found (tolerance 1.00e-04)
Best objective 3.176360000000e+07, best bound 3.176360000000e+07, gap 0.0%
k_c1	1000000.0
k_c2	40000.0
k_c3	60000.0
k_c4	30000.0
k_c5	1000000.0
k_c6	969999.0
k_c7	130000.0
k_c8	90000.0
k_dN	-0.0
o_1	0.0
o_2	0.0
o_3	0.0
o_4	0.0
o_5	0.0
o_6	0.0
o_7	0.0
o_8	0.0
p_1	0.0
p_2	0.0
p_3	0.0
p_4	0.0
p_5	0.0
p_6	0.0
p_7	0.0
p_8	0.0
phi_c1	44379.0
phi_c2	16183.0
phi_c3	30627.0
phi_c4	13728.0
phi_c5	45329.0
phi_c6	44386.0
phi_c7	40151.0
phi_c8	13795.0
phi_dN	0.0
pi_c1	240000.0
pi_c2	240000.0
pi_c3	240000.0
pi_c4	240000.0
pi_c5	-0.0
pi_c6	285329.0
pi_c7	240000.0
pi_c8	240000.0
pi_dN	-0.0
tauD_c1	154200.0
tauD_c2	600000.0
tauD_c3	446025.0
tauD_c4	800000.0
tauD_c5	250000.0
tauD_c6	323525.0
tauD_c7	200000.0
tauD_c8	850000.0
tauD_d0	-0.0
tauD_dN	1000000.0
tauS_c1	861625.0
tauS_c2	859525.0
tauS_c3	834675.0
tauS_c4	868700.0
tauS_c5	97525.0
tauS_c6	861849.0
tauS_c7	849275.0
tauS_c8	868450.0
tauS_d0	-0.0
tauS_dN	1000000.0
x_c1_c7	1.0
x_c2_dN	1.0
x_c3_c2	1.0
x_c4_dN	1.0
x_c5_c6	1.0
x_c6_c4	1.0
x_c7_c3	1.0
x_c8_dN	1.0
x_d0_c1	1.0
x_d0_c5	1.0
x_d0_c8	1.0
